p idrup
i -12 -14 0
i -2 6 0
i -14 13 0
i -6 -13 17 0
i 11 -18 2 0
i -1 0
i 8 16 0
i -7 -3 0
i -5 11 0
i 4 7 16 0
i -9 17 0
i 12 16 -10 0
i -11 -4 -8 0
i 15 -16 0
i 10 18 5 0
i 15 3 9 0
i 15 14 0
i 20 -17 0
i 5 19 0
i -11 -15 0
q 0
l -14 17 16 0
s SATISFIABLE
m -1 -2 3 4 -5 -6 -7 8 -9 10 -11 12 13 -14 15 -16 -17 -18 19 -20 0
